NAME : xit1083
COMMENT : Bonn VLSI data set with 1083 points
COMMENT : Uni Bonn, Research Institute for Discrete Math
COMMENT : Contributed by Andre Rohe
TYPE : TSP
DIMENSION : 1083
EDGE_WEIGHT_TYPE : EUC_2D
NODE_COORD_SECTION
1 0 105
2 0 111
3 0 15
4 0 21
5 0 27
6 0 3
7 0 33
8 0 39
9 0 45
10 0 51
11 0 56
12 0 57
13 0 63
14 0 67
15 0 69
16 0 75
17 0 81
18 0 87
19 0 9
20 0 93
21 0 99
22 2 104
23 2 106
24 2 109
25 2 11
26 2 12
27 2 18
28 2 20
29 2 22
30 2 29
31 2 32
32 2 35
33 2 46
34 2 49
35 2 52
36 2 62
37 2 65
38 2 68
39 2 69
40 2 71
41 2 74
42 2 77
43 2 78
44 2 80
45 2 83
46 2 85
47 2 88
48 2 94
49 2 97
50 3 19
51 3 30
52 3 47
53 3 63
54 3 81
55 5 107
56 5 113
57 5 66
58 5 8
59 9 10
60 9 103
61 10 106
62 10 65
63 11 106
64 11 111
65 11 65
66 11 67
67 12 5
68 15 105
69 15 107
70 15 11
71 15 30
72 15 47
73 15 64
74 15 66
75 15 68
76 15 8
77 15 82
78 15 89
79 17 109
80 17 20
81 17 32
82 17 49
83 17 71
84 17 77
85 17 94
86 18 38
87 18 55
88 18 86
89 18 98
90 25 101
91 25 104
92 25 106
93 25 15
94 25 16
95 25 18
96 25 21
97 25 25
98 25 29
99 25 32
100 25 39
101 25 41
102 25 44
103 25 56
104 25 58
105 25 62
106 25 64
107 25 67
108 25 69
109 25 70
110 25 73
111 25 76
112 25 77
113 25 80
114 25 86
115 25 87
116 25 89
117 25 92
118 26 57
119 28 105
120 28 107
121 28 11
122 28 111
123 28 6
124 28 63
125 28 65
126 28 9
127 31 118
128 32 101
129 32 118
130 32 14
131 33 104
132 33 106
133 33 118
134 33 62
135 33 64
136 33 66
137 34 104
138 34 106
139 34 118
140 34 5
141 34 56
142 34 62
143 34 64
144 34 8
145 35 108
146 35 118
147 36 118
148 37 118
149 38 105
150 38 107
151 38 11
152 38 111
153 38 118
154 38 15
155 38 28
156 38 40
157 38 57
158 38 6
159 38 63
160 38 65
161 38 74
162 38 81
163 38 9
164 38 93
165 40 18
166 40 29
167 40 41
168 40 58
169 40 69
170 40 86
171 41 101
172 41 47
173 41 67
174 48 100
175 48 104
176 48 107
177 48 11
178 48 12
179 48 13
180 48 20
181 48 22
182 48 25
183 48 30
184 48 32
185 48 35
186 48 37
187 48 38
188 48 39
189 48 46
190 48 52
191 48 57
192 48 59
193 48 62
194 48 63
195 48 65
196 48 68
197 48 71
198 48 72
199 48 74
200 48 77
201 48 79
202 48 82
203 48 88
204 48 91
205 48 98
206 49 75
207 51 101
208 51 105
209 51 108
210 51 112
211 51 21
212 51 25
213 51 27
214 51 31
215 51 35
216 51 53
217 51 56
218 51 58
219 51 60
220 51 7
221 55 10
222 55 19
223 55 29
224 55 36
225 55 97
226 56 100
227 56 104
228 56 107
229 56 19
230 56 24
231 56 29
232 56 45
233 56 52
234 56 57
235 56 59
236 57 100
237 57 104
238 57 107
239 57 14
240 57 19
241 57 24
242 57 29
243 57 40
244 57 45
245 57 5
246 57 52
247 57 54
248 57 57
249 57 59
250 57 61
251 58 109
252 61 101
253 61 105
254 61 108
255 61 112
256 61 25
257 61 27
258 61 53
259 61 58
260 61 60
261 61 62
262 61 76
263 61 83
264 61 99
265 62 46
266 63 65
267 63 71
268 63 88
269 64 80
270 64 92
271 71 100
272 71 101
273 71 107
274 71 12
275 71 13
276 71 14
277 71 18
278 71 19
279 71 20
280 71 21
281 71 25
282 71 29
283 71 37
284 71 45
285 71 52
286 71 6
287 71 61
288 71 63
289 71 64
290 71 67
291 71 70
292 71 71
293 71 74
294 71 80
295 71 81
296 71 83
297 71 86
298 71 95
299 71 99
300 72 118
301 73 118
302 74 10
303 74 108
304 74 112
305 74 118
306 74 25
307 74 27
308 74 30
309 74 34
310 75 118
311 76 118
312 77 118
313 78 118
314 78 95
315 78 98
316 79 107
317 79 118
318 79 24
319 79 29
320 79 36
321 79 44
322 79 51
323 79 60
324 80 102
325 80 107
326 80 118
327 80 13
328 80 24
329 80 29
330 80 36
331 80 44
332 80 51
333 80 8
334 81 109
335 81 118
336 81 31
337 84 108
338 84 112
339 84 25
340 84 27
341 84 30
342 84 34
343 84 68
344 84 75
345 84 87
346 85 37
347 85 45
348 85 52
349 86 6
350 86 63
351 86 80
352 87 14
353 87 18
354 87 20
355 87 21
356 87 61
357 87 95
358 94 102
359 94 108
360 94 110
361 94 15
362 94 16
363 94 17
364 94 24
365 94 26
366 94 30
367 94 31
368 94 32
369 94 33
370 94 37
371 94 39
372 94 42
373 94 43
374 94 44
375 94 51
376 94 52
377 94 53
378 94 60
379 94 68
380 94 71
381 94 79
382 94 81
383 94 83
384 94 85
385 94 90
386 94 92
387 94 97
388 94 98
389 94 99
390 97 102
391 97 11
392 97 25
393 97 38
394 97 69
395 97 7
396 97 72
397 97 76
398 97 80
399 97 82
400 97 84
401 97 86
402 97 90
403 97 92
404 101 14
405 101 23
406 101 36
407 101 41
408 101 50
409 102 101
410 102 23
411 102 36
412 102 59
413 102 68
414 102 71
415 102 79
416 102 81
417 102 83
418 102 85
419 102 89
420 103 101
421 103 104
422 103 18
423 103 23
424 103 36
425 103 45
426 103 5
427 103 54
428 103 59
429 103 68
430 103 71
431 103 79
432 103 81
433 103 83
434 103 85
435 103 89
436 104 73
437 107 102
438 107 69
439 107 72
440 107 76
441 107 80
442 107 82
443 107 84
444 107 86
445 107 90
446 107 92
447 109 97
448 110 30
449 110 32
450 110 33
451 110 98
452 117 103
453 117 105
454 117 111
455 117 43
456 117 50
457 117 52
458 117 54
459 117 56
460 117 58
461 117 60
462 117 96
463 120 108
464 120 11
465 120 17
466 120 25
467 120 33
468 120 41
469 120 51
470 120 55
471 120 59
472 120 66
473 120 7
474 120 74
475 120 82
476 120 90
477 123 118
478 123 13
479 123 19
480 123 27
481 123 35
482 123 62
483 123 68
484 123 76
485 123 84
486 123 92
487 124 13
488 124 19
489 124 27
490 124 35
491 124 49
492 124 62
493 124 68
494 124 76
495 124 84
496 124 92
497 125 118
498 125 13
499 125 19
500 125 27
501 125 35
502 125 42
503 125 49
504 125 62
505 125 68
506 125 76
507 125 84
508 125 92
509 125 95
510 126 107
511 126 118
512 126 13
513 126 20
514 126 28
515 126 36
516 126 42
517 126 49
518 126 5
519 126 62
520 126 69
521 126 77
522 126 85
523 126 93
524 126 95
525 127 13
526 127 62
527 127 8
528 130 108
529 130 11
530 131 43
531 131 96
532 132 103
533 132 105
534 132 111
535 133 15
536 133 17
537 133 19
538 133 23
539 133 25
540 133 27
541 133 30
542 133 31
543 133 33
544 133 35
545 133 39
546 133 40
547 133 63
548 133 64
549 133 66
550 133 68
551 133 71
552 133 72
553 133 74
554 133 76
555 133 79
556 133 80
557 133 82
558 133 84
559 133 88
560 133 90
561 133 92
562 140 100
563 140 102
564 140 104
565 140 106
566 140 107
567 140 11
568 140 14
569 140 15
570 140 16
571 140 17
572 140 18
573 140 20
574 140 29
575 140 31
576 140 33
577 140 35
578 140 38
579 140 39
580 140 40
581 140 44
582 140 48
583 140 51
584 140 52
585 140 53
586 140 60
587 140 61
588 140 62
589 140 63
590 140 67
591 140 68
592 140 69
593 140 76
594 140 77
595 140 78
596 140 9
597 140 90
598 140 92
599 140 94
600 140 96
601 140 98
602 143 103
603 143 111
604 143 27
605 143 30
606 143 34
607 143 44
608 143 48
609 143 87
610 143 91
611 143 95
612 143 99
613 147 28
614 147 50
615 147 66
616 147 75
617 147 89
618 148 28
619 148 43
620 148 47
621 148 89
622 149 109
623 149 20
624 149 28
625 149 39
626 149 43
627 149 47
628 149 5
629 149 54
630 149 70
631 149 79
632 149 89
633 150 24
634 150 84
635 153 27
636 153 44
637 153 48
638 153 87
639 155 107
640 156 14
641 156 15
642 156 17
643 156 18
644 156 40
645 156 60
646 156 62
647 156 63
648 163 101
649 163 105
650 163 107
651 163 110
652 163 12
653 163 13
654 163 14
655 163 15
656 163 16
657 163 18
658 163 27
659 163 28
660 163 29
661 163 30
662 163 31
663 163 33
664 163 38
665 163 39
666 163 40
667 163 41
668 163 42
669 163 44
670 163 49
671 163 51
672 163 54
673 163 55
674 163 56
675 163 60
676 163 61
677 163 62
678 163 63
679 163 67
680 163 68
681 163 69
682 163 76
683 163 77
684 163 78
685 163 9
686 163 90
687 163 97
688 163 99
689 166 101
690 166 103
691 166 105
692 166 107
693 166 25
694 166 6
695 166 86
696 166 97
697 166 99
698 170 66
699 170 75
700 171 104
701 171 89
702 171 96
703 172 104
704 172 18
705 172 33
706 172 44
707 172 5
708 172 55
709 172 70
710 172 79
711 172 84
712 172 89
713 172 96
714 173 22
715 176 101
716 176 103
717 176 105
718 176 107
719 176 25
720 176 6
721 176 97
722 176 99
723 177 90
724 178 110
725 178 49
726 178 51
727 178 9
728 179 12
729 179 13
730 179 15
731 179 16
732 179 27
733 179 28
734 179 30
735 179 31
736 179 38
737 179 39
738 179 41
739 179 42
740 179 56
741 179 60
742 179 62
743 179 63
744 186 100
745 186 103
746 186 108
747 186 110
748 186 14
749 186 16
750 186 19
751 186 21
752 186 23
753 186 25
754 186 27
755 186 30
756 186 32
757 186 34
758 186 36
759 186 38
760 186 41
761 186 43
762 186 45
763 186 49
764 186 50
765 186 51
766 186 57
767 186 58
768 186 61
769 186 62
770 186 63
771 186 64
772 186 65
773 186 67
774 186 72
775 186 73
776 186 74
777 186 75
778 186 76
779 186 78
780 186 83
781 186 90
782 186 92
783 186 94
784 186 96
785 186 98
786 189 103
787 189 11
788 189 15
789 189 19
790 189 22
791 189 26
792 189 30
793 189 32
794 189 34
795 189 36
796 189 38
797 189 41
798 189 43
799 189 45
800 189 47
801 189 6
802 189 9
803 189 91
804 189 95
805 189 99
806 193 13
807 193 20
808 193 48
809 193 89
810 194 13
811 194 20
812 194 31
813 194 40
814 194 82
815 194 89
816 195 104
817 195 13
818 195 20
819 195 31
820 195 40
821 195 5
822 195 52
823 195 67
824 195 78
825 195 8
826 195 82
827 195 89
828 199 11
829 199 32
830 199 34
831 199 36
832 199 38
833 199 41
834 199 43
835 199 45
836 199 47
837 199 6
838 199 9
839 200 83
840 201 58
841 202 61
842 202 62
843 202 64
844 202 65
845 202 72
846 202 73
847 202 75
848 202 76
849 209 101
850 209 14
851 209 16
852 209 18
853 209 21
854 209 23
855 209 26
856 209 28
857 209 30
858 209 33
859 209 35
860 209 38
861 209 40
862 209 42
863 209 45
864 209 52
865 209 54
866 209 56
867 209 60
868 209 64
869 209 71
870 209 72
871 209 73
872 209 80
873 209 82
874 209 84
875 209 86
876 209 89
877 209 92
878 212 11
879 212 110
880 212 112
881 212 14
882 212 16
883 212 18
884 212 22
885 212 26
886 212 28
887 212 30
888 212 33
889 212 35
890 212 38
891 212 40
892 212 42
893 212 52
894 212 54
895 212 56
896 212 58
897 212 60
898 212 62
899 212 7
900 212 80
901 212 82
902 212 84
903 212 86
904 216 118
905 216 20
906 216 70
907 217 100
908 217 118
909 217 13
910 217 20
911 217 25
912 217 32
913 217 37
914 217 44
915 217 51
916 217 59
917 217 63
918 217 79
919 217 91
920 218 100
921 218 109
922 218 118
923 218 13
924 218 20
925 218 25
926 218 32
927 218 37
928 218 44
929 218 5
930 218 51
931 218 59
932 218 63
933 218 74
934 218 79
935 218 91
936 219 118
937 219 8
938 220 118
939 221 118
940 222 11
941 222 110
942 222 112
943 222 118
944 222 14
945 222 16
946 222 18
947 222 26
948 222 28
949 222 30
950 222 33
951 222 35
952 222 38
953 222 40
954 222 42
955 222 52
956 222 54
957 222 56
958 222 58
959 222 60
960 222 62
961 222 80
962 222 82
963 222 84
964 222 86
965 223 45
966 223 64
967 224 89
968 231 101
969 231 108
970 231 110
971 231 15
972 231 17
973 231 19
974 231 21
975 231 24
976 231 26
977 231 28
978 231 30
979 231 32
980 231 35
981 231 39
982 231 47
983 231 49
984 231 51
985 231 54
986 231 55
987 231 57
988 231 58
989 231 60
990 231 61
991 231 64
992 231 65
993 231 69
994 231 70
995 231 71
996 231 78
997 231 85
998 231 87
999 231 90
1000 231 99
1001 234 10
1002 234 101
1003 234 103
1004 234 16
1005 234 20
1006 234 24
1007 234 26
1008 234 28
1009 234 30
1010 234 32
1011 234 35
1012 234 37
1013 234 39
1014 234 41
1015 234 44
1016 234 47
1017 234 49
1018 234 51
1019 234 53
1020 234 8
1021 234 99
1022 238 14
1023 238 68
1024 239 14
1025 239 25
1026 239 34
1027 239 38
1028 239 46
1029 239 77
1030 239 89
1031 239 98
1032 240 104
1033 240 14
1034 240 25
1035 240 34
1036 240 38
1037 240 42
1038 240 46
1039 240 72
1040 240 77
1041 240 89
1042 240 9
1043 240 98
1044 241 5
1045 244 10
1046 244 101
1047 244 103
1048 244 26
1049 244 28
1050 244 30
1051 244 32
1052 244 35
1053 244 37
1054 244 39
1055 244 41
1056 244 47
1057 244 49
1058 244 51
1059 244 53
1060 244 8
1061 244 99
1062 245 78
1063 246 55
1064 246 58
1065 246 61
1066 246 64
1067 246 65
1068 246 85
1069 246 87
1070 251 107
1071 251 27
1072 251 37
1073 251 47
1074 251 56
1075 251 57
1076 251 58
1077 251 59
1078 251 61
1079 251 63
1080 251 67
1081 251 77
1082 251 87
1083 251 97
EOF
